(set-logic QF_UF)
(declare-fun circuit () Bool)
(declare-fun grn () Bool)
(declare-fun grn_MR () Bool)
(declare-fun grn_SR () Bool)
(declare-fun org () Bool)
(declare-fun org_MR () Bool)
(declare-fun org_SR () Bool)
(declare-fun prt () Bool)
(declare-fun rd1 () Bool)
(declare-fun rd2 () Bool)
(declare-fun red_MR () Bool)
(declare-fun red_SR () Bool)
(assert (not (not (= (or (not (not prt)) (not red_MR)) (or prt (not red_MR))))))
(assert (not (not (or (not (not prt)) (not red_MR)))))
(assert (not (or prt (not red_MR))))
(check-sat)
(exit)
